c description: Random 3-CNF over 16 variables and 68 clauses
c generator: CNFgen (0.9.2)
c copyright: (C) 2012-2022 Massimo Lauria <massimo.lauria@uniroma1.it>
c url: https://massimolauria.net/cnfgen
c command line: cnfgen --output CNF_4.28/16_bit_68_536.cnf randkcnf 3 16 68
c
p cnf 16 68
11 -12 16 0
-5 -9 12 0
4 14 15 0
-9 -12 -14 0
4 8 -9 0
7 -15 -16 0
-7 -12 -14 0
1 4 -12 0
-6 -8 -11 0
7 8 -11 0
-6 10 -12 0
7 9 -16 0
-1 9 -16 0
-10 -13 -15 0
-8 -10 -13 0
-1 -7 -10 0
10 -12 15 0
-1 -8 -14 0
9 11 16 0
-1 -2 12 0
-4 5 6 0
3 7 -9 0
3 -12 16 0
4 -8 -11 0
4 10 13 0
8 13 14 0
-10 11 -13 0
2 11 -12 0
3 -9 12 0
-7 -14 -15 0
1 -12 -15 0
4 -8 14 0
-4 -5 15 0
-2 7 12 0
-9 10 -11 0
7 -11 -15 0
-9 -11 13 0
6 -7 -12 0
2 -6 10 0
-4 -10 -13 0
-5 -8 13 0
3 -9 15 0
5 7 9 0
1 -5 16 0
5 6 12 0
9 13 16 0
-3 -5 -7 0
-1 9 -13 0
2 3 5 0
2 5 -7 0
2 -7 -10 0
11 14 -15 0
-6 13 14 0
9 12 16 0
-1 5 -7 0
-2 -5 15 0
-3 7 8 0
-1 4 -5 0
-5 -7 15 0
-3 -11 12 0
2 -7 15 0
1 2 13 0
-9 -11 14 0
-12 -13 15 0
-1 -2 5 0
-2 6 10 0
-5 -9 -12 0
-6 10 14 0
